c colouring generated by benchmark framework
p edge 23 71
v 1 3
v 2 0
v 3 4
v 4 4
v 5 2
v 6 1
v 7 0
v 8 1
v 9 1
v 10 1
v 11 3
v 12 2
v 13 2
v 14 3
v 15 4
v 16 2
v 17 1
v 18 1
v 19 4
v 20 4
v 21 1
v 22 2
v 23 0
